NAME : in_house_8_19
TYPE : TSP
DIMENSION : 8
EDGE_WEIGHT_TYPE : EXPLICIT
EDGE_WEIGHT_FORMAT : UPPER_ROW
COMMENT : INVERSION_SHIFT=4
EDGE_WEIGHT_SECTION
5
64
21
2
21
14
41
55
13
54
31
7
36
41
44
10
39
37
15
51
19
7
47
20
40
62
53
5
